NAME : cgl_50.6155.tour
COMMENT : Length = 6155
COMMENT : Found by LKH-3 [Keld Helsgaun] Fri Nov  8 17:38:19 2024
TYPE : TOUR
DIMENSION : 51
TOUR_SECTION
30
19
20
21
22
23
24
25
26
27
28
32
33
34
50
35
36
39
40
37
38
41
42
43
47
46
48
49
44
45
51
1
2
3
4
6
5
12
13
16
14
15
10
11
8
9
7
17
18
31
29
-1
EOF
